<number of tasks>
89

<cycle time>
15

<task times>
1 1
2 2
3 3
4 4
5 5
6 6
7 7
8 8
9 9
10 10
11 1
12 2
13 3
14 4
15 5
16 6
17 7
18 8
19 9
20 10
21 1
22 2
23 3
24 4
25 5
26 6
27 7
28 8
29 9
30 10
31 1
32 2
33 3
34 4
35 5
36 6
37 7
38 8
39 9
40 10
41 1
42 2
43 3
44 4
45 5
46 6
47 7
48 8
49 9
50 10
51 1
52 2
53 3
54 4
55 5
56 6
57 7
58 8
59 9
60 10
61 1
62 2
63 3
64 4
65 5
66 6
67 7
68 8
69 9
70 10
71 1
72 2
73 3
74 4
75 5
76 6
77 7
78 8
79 9
80 10
81 1
82 2
83 3
84 4
85 5
86 6
87 7
88 8
89 9

<precedence relations>
1,2
2,3
3,4
4,5
4,6
4,7
4,8
4,9
5,10
6,11
7,12
8,18
9,18
10,14
11,12
12,13
13,14
14,15
14,16
15,17
16,54
17,18
18,19
18,20
19,22
20,21
20,28
21,54
22,23
23,24
24,25
25,26
25,27
25,29
26,37
27,33
28,29
29,31
30,54
31,32
32,33
33,34
34,35
35,36
35,37
36,38
37,38
38,39
39,40
39,41
39,42
39,43
40,44
41,53
42,53
43,45
44,52
45,46
46,47
47,48
47,49
49,50
50,51
51,52
52,53
53,68
53,69
53,70
53,71
54,55
55,56
56,57
57,58
57,59
57,60
57,61
57,62
57,63
57,64
57,65
57,66
58,67
59,67
60,67
61,67
62,67
63,67
64,67
65,67
66,67
67,73
68,72
69,72
70,72
71,73
72,78
72,80
73,74
74,75
74,76
75,77
76,81
77,78
78,79
79,81
80,81
81,82
81,84
81,85
82,83
83,86
84,86
85,86
86,87
87,88
87,89

<setup times forward>
1,30:2
2,30:2
3,30:2
4,6:2
4,7:2
4,8:1
4,9:1
4,30:2
5,6:2
5,7:2
5,8:1
5,9:1
5,11:2
5,30:2
6,5:2
6,8:1
6,9:1
6,10:2
6,30:4
7,5:2
7,8:1
7,9:1
7,10:2
7,12:2
7,30:4
8,5:1
8,6:1
8,7:1
8,10:1
8,11:1
8,12:1
8,13:1
8,16:1
8,17:2
8,18:2
8,30:3
9,5:1
9,6:1
9,7:1
9,10:1
9,11:1
9,12:1
9,13:1
9,16:1
9,17:2
9,18:2
9,30:3
10,6:2
10,7:2
10,8:1
10,9:1
10,11:2
10,14:1
10,30:2
11,5:2
11,8:1
11,9:1
11,10:2
11,12:2
11,30:4
12,8:1
12,9:1
12,30:2
13,8:1
13,9:1
13,14:1
13,30:2
14,16:1
14,30:3
15,16:1
15,17:2
15,30:3
16,8:1
16,9:1
16,15:1
16,17:3
16,18:3
16,19:3
16,20:2
16,21:2
16,22:3
16,23:3
16,27:2
16,28:2
16,29:4
16,30:4
16,31:4
16,32:4
16,33:4
16,34:2
16,35:2
16,36:2
16,37:1
16,38:1
16,41:3
16,42:4
16,43:4
16,45:4
16,46:4
16,47:2
16,48:2
16,49:1
16,52:3
16,53:3
16,54:4
16,68:2
16,69:2
16,70:4
16,71:4
16,72:4
16,80:1
17,8:2
17,9:2
17,16:3
17,30:1
18,16:3
18,20:1
18,30:1
19,16:3
19,20:1
19,21:1
19,28:1
19,30:1
19,54:1
19,55:3
19,56:2
19,57:3
19,58:3
19,60:3
19,61:1
19,62:1
19,63:1
19,64:1
19,65:3
19,66:1
19,67:1
20,16:2
20,19:1
20,22:1
20,23:1
20,24:2
20,25:2
20,26:2
20,30:2
21,16:2
21,19:1
21,22:1
21,23:1
21,24:2
21,25:2
21,26:2
21,29:2
21,30:2
21,31:2
21,32:2
21,33:2
21,37:1
21,38:1
21,39:2
21,40:2
21,41:1
21,42:2
21,43:2
21,44:2
21,45:2
21,46:2
21,49:1
21,50:2
21,51:2
21,52:1
21,53:1
21,54:2
21,70:2
21,71:2
21,72:2
21,80:1
22,16:3
22,20:1
22,21:1
22,28:1
22,30:1
22,54:1
22,55:3
22,56:2
22,57:3
22,58:3
22,60:3
22,61:1
22,62:1
22,63:1
22,64:1
22,65:3
22,66:1
22,67:1
23,16:3
23,20:1
23,21:1
23,24:3
23,28:1
23,30:1
23,54:1
23,55:3
23,56:2
23,57:3
23,58:3
23,60:3
23,61:1
23,62:1
23,63:1
23,64:1
23,65:3
23,66:1
23,67:1
24,20:2
24,21:2
24,28:2
24,30:4
24,54:4
24,56:1
24,59:3
24,61:2
24,62:2
24,63:4
24,64:2
24,66:2
24,67:4
25,20:2
25,21:2
25,27:2
25,28:2
25,29:4
25,30:4
25,54:4
25,56:1
25,59:3
25,61:2
25,62:2
25,63:4
25,64:2
25,66:2
25,67:4
26,20:2
26,21:2
26,27:2
26,28:2
26,29:4
26,30:4
26,31:4
26,32:4
26,33:4
26,34:2
26,35:2
26,36:2
26,37:1
26,54:4
26,56:1
26,59:3
26,61:2
26,62:2
26,63:4
26,64:2
26,66:2
26,67:4
27,16:2
27,26:2
27,29:2
27,30:2
27,31:2
27,32:2
27,33:2
27,54:2
27,55:2
27,56:1
27,57:2
27,58:2
27,59:1
27,60:2
27,63:2
27,65:2
27,67:2
28,16:2
28,19:1
28,22:1
28,23:1
28,24:2
28,25:2
28,26:2
28,29:2
28,30:2
28,54:2
28,55:2
28,56:1
28,57:2
28,58:2
28,59:1
28,60:2
28,63:2
28,65:2
28,67:2
29,16:4
29,21:2
29,26:4
29,27:2
29,55:4
29,56:3
29,57:4
29,58:4
29,59:1
29,60:4
29,61:2
29,62:2
29,64:2
29,65:4
29,66:2
30,1:2
30,2:2
30,3:2
30,4:2
30,5:2
30,6:4
30,7:4
30,8:3
30,9:3
30,10:2
30,11:4
30,12:2
30,13:2
30,14:3
30,15:3
30,16:4
30,17:1
30,18:1
30,19:1
30,20:2
30,21:2
30,22:1
30,23:1
30,24:4
30,25:4
30,26:4
30,27:2
30,28:2
30,34:2
30,35:2
30,36:2
30,37:3
30,38:3
30,39:4
30,40:4
30,41:1
30,44:4
30,47:2
30,48:2
30,49:3
30,50:4
30,51:4
30,52:1
30,53:1
30,68:2
30,69:2
30,80:3
31,16:4
31,21:2
31,26:4
31,27:2
31,55:4
31,56:3
31,57:4
31,58:4
31,59:1
31,60:4
31,61:2
31,62:2
31,64:2
31,65:4
31,66:2
32,16:4
32,21:2
32,26:4
32,27:2
32,55:4
32,56:3
32,57:4
32,58:4
32,59:1
32,60:4
32,61:2
32,62:2
32,64:2
32,65:4
32,66:2
33,16:4
33,21:2
33,26:4
33,34:2
33,55:4
33,56:3
33,57:4
33,58:4
33,59:1
33,60:4
33,61:2
33,62:2
33,64:2
33,65:4
33,66:2
34,16:2
34,26:2
34,30:2
34,54:2
34,55:2
34,56:1
34,57:2
34,58:2
34,59:1
34,60:2
34,63:2
34,65:2
34,67:2
35,16:2
35,26:2
35,30:2
35,37:1
35,54:2
35,55:2
35,56:1
35,57:2
35,58:2
35,59:1
35,60:2
35,63:2
35,65:2
35,67:2
36,16:2
36,26:2
36,30:2
36,37:1
36,38:1
36,54:2
36,55:2
36,56:1
36,57:2
36,58:2
36,59:1
36,60:2
36,63:2
36,65:2
36,67:2
37,16:1
37,21:1
37,30:3
37,36:1
37,54:3
37,55:1
37,57:1
37,58:1
37,59:2
37,60:1
37,61:1
37,62:1
37,63:3
37,64:1
37,65:1
37,66:1
37,67:3
38,16:1
38,21:1
38,30:3
38,39:1
38,54:3
38,55:1
38,57:1
38,58:1
38,59:2
38,60:1
38,61:1
38,62:1
38,63:3
38,64:1
38,65:1
38,66:1
38,67:3
39,21:2
39,30:4
39,41:3
39,42:4
39,43:4
39,54:4
39,56:1
39,59:3
39,61:2
39,62:2
39,63:4
39,64:2
39,66:2
39,67:4
40,21:2
40,30:4
40,41:3
40,42:4
40,43:4
40,45:4
40,46:4
40,47:2
40,48:2
40,49:1
40,54:4
40,56:1
40,59:3
40,61:2
40,62:2
40,63:4
40,64:2
40,66:2
40,67:4
41,16:3
41,21:1
41,30:1
41,40:3
41,42:1
41,43:1
41,44:3
41,45:1
41,46:1
41,47:1
41,48:1
41,49:2
41,50:3
41,51:3
41,54:1
41,55:3
41,56:2
41,57:3
41,58:3
41,60:3
41,61:1
41,62:1
41,63:1
41,64:1
41,65:3
41,66:1
41,67:1
42,16:4
42,21:2
42,40:4
42,41:1
42,44:4
42,47:2
42,48:2
42,49:3
42,50:4
42,51:4
42,52:1
42,53:1
42,55:4
42,56:3
42,57:4
42,58:4
42,59:1
42,60:4
42,61:2
42,62:2
42,64:2
42,65:4
42,66:2
43,16:4
43,21:2
43,40:4
43,41:1
43,44:4
43,55:4
43,56:3
43,57:4
43,58:4
43,59:1
43,60:4
43,61:2
43,62:2
43,64:2
43,65:4
43,66:2
44,21:2
44,30:4
44,41:3
44,42:4
44,43:4
44,45:4
44,46:4
44,47:2
44,48:2
44,49:1
44,52:3
44,54:4
44,56:1
44,59:3
44,61:2
44,62:2
44,63:4
44,64:2
44,66:2
44,67:4
45,16:4
45,21:2
45,40:4
45,41:1
45,44:4
45,55:4
45,56:3
45,57:4
45,58:4
45,59:1
45,60:4
45,61:2
45,62:2
45,64:2
45,65:4
45,66:2
46,16:4
46,21:2
46,40:4
46,41:1
46,44:4
46,47:2
46,55:4
46,56:3
46,57:4
46,58:4
46,59:1
46,60:4
46,61:2
46,62:2
46,64:2
46,65:4
46,66:2
47,16:2
47,30:2
47,40:2
47,41:1
47,42:2
47,44:2
47,49:1
47,54:2
47,55:2
47,56:1
47,57:2
47,58:2
47,59:1
47,60:2
47,63:2
47,65:2
47,67:2
48,16:2
48,30:2
48,40:2
48,41:1
48,42:2
48,44:2
48,49:1
48,50:2
48,51:2
48,52:1
48,53:1
48,54:2
48,55:2
48,56:1
48,57:2
48,58:2
48,59:1
48,60:2
48,63:2
48,65:2
48,67:2
48,70:2
48,71:2
48,72:2
48,73:2
48,74:2
48,75:1
48,76:2
48,77:2
48,78:2
48,80:1
48,81:2
48,82:2
48,83:2
48,84:2
48,85:2
48,86:2
49,16:1
49,21:1
49,30:3
49,40:1
49,41:2
49,42:3
49,44:1
49,48:1
49,50:1
49,54:3
49,55:1
49,57:1
49,58:1
49,59:2
49,60:1
49,61:1
49,62:1
49,63:3
49,64:1
49,65:1
49,66:1
49,67:3
50,21:2
50,30:4
50,41:3
50,42:4
50,48:2
50,54:4
50,56:1
50,59:3
50,61:2
50,62:2
50,63:4
50,64:2
50,66:2
50,67:4
51,21:2
51,30:4
51,41:3
51,42:4
51,48:2
51,52:3
51,54:4
51,56:1
51,59:3
51,61:2
51,62:2
51,63:4
51,64:2
51,66:2
51,67:4
52,16:3
52,21:1
52,30:1
52,42:1
52,48:1
52,54:1
52,55:3
52,56:2
52,57:3
52,58:3
52,60:3
52,61:1
52,62:1
52,63:1
52,64:1
52,65:3
52,66:1
52,67:1
53,16:3
53,21:1
53,30:1
53,48:1
53,54:1
53,55:3
53,56:2
53,57:3
53,58:3
53,60:3
53,61:1
53,62:1
53,63:1
53,64:1
53,65:3
53,66:1
53,67:1
53,68:1
53,69:1
53,70:1
53,71:1
54,19:1
54,22:1
54,23:1
54,24:4
54,25:4
54,26:4
54,27:2
54,28:2
54,34:2
54,35:2
54,36:2
54,37:3
54,38:3
54,39:4
54,40:4
54,41:1
54,44:4
54,47:2
54,48:2
54,49:3
54,50:4
54,51:4
54,52:1
54,53:1
54,55:4
54,68:2
54,69:2
54,80:3
55,19:3
55,22:3
55,23:3
55,27:2
55,28:2
55,29:4
55,31:4
55,32:4
55,33:4
55,34:2
55,35:2
55,36:2
55,37:1
55,38:1
55,41:3
55,42:4
55,43:4
55,45:4
55,46:4
55,47:2
55,48:2
55,49:1
55,52:3
55,53:3
55,56:1
55,68:2
55,69:2
55,70:4
55,71:4
55,72:4
55,80:1
56,19:2
56,22:2
56,23:2
56,24:1
56,25:1
56,26:1
56,27:1
56,28:1
56,29:3
56,31:3
56,32:3
56,33:3
56,34:1
56,35:1
56,36:1
56,39:1
56,40:1
56,41:2
56,42:3
56,43:3
56,44:1
56,45:3
56,46:3
56,47:1
56,48:1
56,50:1
56,51:1
56,52:2
56,53:2
56,57:1
56,68:1
56,69:1
56,70:3
56,71:3
56,72:3
57,19:3
57,22:3
57,23:3
57,27:2
57,28:2
57,29:4
57,31:4
57,32:4
57,33:4
57,34:2
57,35:2
57,36:2
57,37:1
57,38:1
57,41:3
57,42:4
57,43:4
57,45:4
57,46:4
57,47:2
57,48:2
57,49:1
57,52:3
57,53:3
57,59:3
57,61:2
57,62:2
57,63:4
57,64:2
57,66:2
57,68:2
57,69:2
57,70:4
57,71:4
57,72:4
57,80:1
58,19:3
58,22:3
58,23:3
58,27:2
58,28:2
58,29:4
58,31:4
58,32:4
58,33:4
58,34:2
58,35:2
58,36:2
58,37:1
58,38:1
58,41:3
58,42:4
58,43:4
58,45:4
58,46:4
58,47:2
58,48:2
58,49:1
58,52:3
58,53:3
58,59:3
58,61:2
58,62:2
58,63:4
58,64:2
58,66:2
58,67:4
58,68:2
58,69:2
58,70:4
58,71:4
58,72:4
58,80:1
59,24:3
59,25:3
59,26:3
59,27:1
59,28:1
59,29:1
59,31:1
59,32:1
59,33:1
59,34:1
59,35:1
59,36:1
59,37:2
59,38:2
59,39:3
59,40:3
59,42:1
59,43:1
59,44:3
59,45:1
59,46:1
59,47:1
59,48:1
59,49:2
59,50:3
59,51:3
59,58:3
59,60:3
59,61:1
59,62:1
59,63:1
59,64:1
59,65:3
59,66:1
59,67:1
59,68:1
59,69:1
59,70:1
59,71:1
59,72:1
59,80:2
60,19:3
60,22:3
60,23:3
60,27:2
60,28:2
60,29:4
60,31:4
60,32:4
60,33:4
60,34:2
60,35:2
60,36:2
60,37:1
60,38:1
60,41:3
60,42:4
60,43:4
60,45:4
60,46:4
60,47:2
60,48:2
60,49:1
60,52:3
60,53:3
60,59:3
60,61:2
60,62:2
60,63:4
60,64:2
60,66:2
60,67:4
60,68:2
60,69:2
60,70:4
60,71:4
60,72:4
60,80:1
61,19:1
61,22:1
61,23:1
61,24:2
61,25:2
61,26:2
61,29:2
61,31:2
61,32:2
61,33:2
61,37:1
61,38:1
61,39:2
61,40:2
61,41:1
61,42:2
61,43:2
61,44:2
61,45:2
61,46:2
61,49:1
61,50:2
61,51:2
61,52:1
61,53:1
61,58:2
61,59:1
61,60:2
61,63:2
61,65:2
61,67:2
61,70:2
61,71:2
61,72:2
61,80:1
62,19:1
62,22:1
62,23:1
62,24:2
62,25:2
62,26:2
62,29:2
62,31:2
62,32:2
62,33:2
62,37:1
62,38:1
62,39:2
62,40:2
62,41:1
62,42:2
62,43:2
62,44:2
62,45:2
62,46:2
62,49:1
62,50:2
62,51:2
62,52:1
62,53:1
62,58:2
62,59:1
62,60:2
62,63:2
62,65:2
62,67:2
62,70:2
62,71:2
62,72:2
62,80:1
63,19:1
63,22:1
63,23:1
63,24:4
63,25:4
63,26:4
63,27:2
63,28:2
63,34:2
63,35:2
63,36:2
63,37:3
63,38:3
63,39:4
63,40:4
63,41:1
63,44:4
63,47:2
63,48:2
63,49:3
63,50:4
63,51:4
63,52:1
63,53:1
63,58:4
63,59:1
63,60:4
63,61:2
63,62:2
63,64:2
63,65:4
63,66:2
63,68:2
63,69:2
63,80:3
64,19:1
64,22:1
64,23:1
64,24:2
64,25:2
64,26:2
64,29:2
64,31:2
64,32:2
64,33:2
64,37:1
64,38:1
64,39:2
64,40:2
64,41:1
64,42:2
64,43:2
64,44:2
64,45:2
64,46:2
64,49:1
64,50:2
64,51:2
64,52:1
64,53:1
64,58:2
64,59:1
64,60:2
64,63:2
64,65:2
64,67:2
64,70:2
64,71:2
64,72:2
64,80:1
65,19:3
65,22:3
65,23:3
65,27:2
65,28:2
65,29:4
65,31:4
65,32:4
65,33:4
65,34:2
65,35:2
65,36:2
65,37:1
65,38:1
65,41:3
65,42:4
65,43:4
65,45:4
65,46:4
65,47:2
65,48:2
65,49:1
65,52:3
65,53:3
65,59:3
65,61:2
65,62:2
65,63:4
65,64:2
65,66:2
65,67:4
65,68:2
65,69:2
65,70:4
65,71:4
65,72:4
65,80:1
66,19:1
66,22:1
66,23:1
66,24:2
66,25:2
66,26:2
66,29:2
66,31:2
66,32:2
66,33:2
66,37:1
66,38:1
66,39:2
66,40:2
66,41:1
66,42:2
66,43:2
66,44:2
66,45:2
66,46:2
66,49:1
66,50:2
66,51:2
66,52:1
66,53:1
66,58:2
66,59:1
66,60:2
66,63:2
66,65:2
66,67:2
66,70:2
66,71:2
66,72:2
66,80:1
67,19:1
67,22:1
67,23:1
67,24:4
67,25:4
67,26:4
67,27:2
67,28:2
67,34:2
67,35:2
67,36:2
67,37:3
67,38:3
67,39:4
67,40:4
67,41:1
67,44:4
67,47:2
67,48:2
67,49:3
67,50:4
67,51:4
67,52:1
67,53:1
67,68:2
67,69:2
67,80:3
68,16:2
68,30:2
68,54:2
68,55:2
68,56:1
68,57:2
68,58:2
68,59:1
68,60:2
68,63:2
68,65:2
68,67:2
68,70:2
68,71:2
68,72:2
68,73:2
68,74:2
68,75:1
68,76:2
68,77:2
69,16:2
69,30:2
69,54:2
69,55:2
69,56:1
69,57:2
69,58:2
69,59:1
69,60:2
69,63:2
69,65:2
69,67:2
69,70:2
69,71:2
69,72:2
69,73:2
69,74:2
69,75:1
69,76:2
69,77:2
70,16:4
70,21:2
70,48:2
70,55:4
70,56:3
70,57:4
70,58:4
70,59:1
70,60:4
70,61:2
70,62:2
70,64:2
70,65:4
70,66:2
70,68:2
70,69:2
70,75:3
70,76:4
71,16:4
71,21:2
71,48:2
71,55:4
71,56:3
71,57:4
71,58:4
71,59:1
71,60:4
71,61:2
71,62:2
71,64:2
71,65:4
71,66:2
71,68:2
71,69:2
71,80:3
72,16:4
72,21:2
72,48:2
72,55:4
72,56:3
72,57:4
72,58:4
72,59:1
72,60:4
72,61:2
72,62:2
72,64:2
72,65:4
72,66:2
72,75:3
72,76:4
72,80:3
73,48:2
73,68:2
73,69:2
73,80:3
74,48:2
74,68:2
74,69:2
74,75:3
74,76:4
74,80:3
75,48:1
75,68:1
75,69:1
75,70:3
75,72:3
75,76:1
75,77:3
76,48:2
76,68:2
76,69:2
76,70:4
76,72:4
76,75:1
76,77:4
76,78:4
76,79:2
76,80:1
77,48:2
77,68:2
77,69:2
77,76:4
77,80:3
78,48:2
78,76:4
78,79:2
78,80:3
79,76:2
79,80:1
79,81:2
80,16:1
80,21:1
80,30:3
80,48:1
80,54:3
80,55:1
80,57:1
80,58:1
80,59:2
80,60:1
80,61:1
80,62:1
80,63:3
80,64:1
80,65:1
80,66:1
80,67:3
80,71:3
80,73:3
80,74:3
80,76:1
80,77:3
80,78:3
80,79:1
80,81:1
81,48:2
82,48:2
83,48:2
84,48:2
85,48:2
86,48:2
86,87:2

<setup times backward>
1,30:2
2,30:2
3,30:2
4,30:2
5,30:2
6,1:2
6,2:2
6,3:2
6,4:2
6,5:2
6,8:1
6,9:1
6,10:2
6,30:4
7,1:2
7,2:2
7,3:2
7,4:2
7,5:2
7,8:1
7,9:1
7,10:2
7,30:4
8,1:1
8,2:1
8,3:1
8,4:1
8,5:1
8,10:1
8,12:1
8,13:1
8,17:2
8,30:3
9,1:1
9,2:1
9,3:1
9,4:1
9,5:1
9,10:1
9,12:1
9,13:1
9,17:2
9,30:3
10,30:2
11,1:2
11,2:2
11,3:2
11,4:2
11,5:2
11,8:1
11,9:1
11,10:2
11,30:4
12,30:2
13,30:2
14,1:1
14,2:1
14,3:1
14,4:1
14,5:1
14,10:1
14,12:1
14,13:1
14,30:3
15,1:1
15,2:1
15,3:1
15,4:1
15,5:1
15,10:1
15,12:1
15,13:1
15,30:3
16,1:2
16,2:2
16,3:2
16,4:2
16,5:2
16,8:1
16,9:1
16,10:2
16,12:2
16,13:2
16,14:1
16,15:1
16,17:3
16,18:3
16,19:3
16,20:2
16,21:2
16,22:3
16,23:3
16,27:2
16,28:2
16,29:4
16,30:4
16,31:4
16,32:4
16,33:4
16,34:2
16,35:2
16,36:2
16,37:1
16,38:1
16,41:3
16,42:4
16,43:4
16,45:4
16,46:4
16,47:2
16,48:2
16,49:1
16,52:3
16,53:3
16,68:2
16,69:2
16,70:4
16,71:4
16,72:4
16,80:1
17,30:1
18,30:1
19,30:1
19,54:1
19,63:1
19,67:1
20,17:1
20,18:1
20,19:1
20,22:1
20,23:1
20,30:2
21,17:1
21,18:1
21,19:1
21,22:1
21,23:1
21,29:2
21,30:2
21,31:2
21,32:2
21,33:2
21,41:1
21,42:2
21,43:2
21,45:2
21,46:2
21,52:1
21,53:1
21,70:2
21,71:2
21,72:2
22,30:1
22,54:1
22,63:1
22,67:1
23,30:1
23,54:1
23,63:1
23,67:1
24,1:2
24,2:2
24,3:2
24,4:2
24,5:2
24,8:1
24,9:1
24,10:2
24,12:2
24,13:2
24,14:1
24,15:1
24,17:3
24,18:3
24,19:3
24,20:2
24,21:2
24,22:3
24,23:3
24,28:2
24,30:4
24,54:4
24,56:1
24,59:3
24,61:2
24,62:2
24,63:4
24,64:2
24,66:2
24,67:4
25,1:2
25,2:2
25,3:2
25,4:2
25,5:2
25,8:1
25,9:1
25,10:2
25,12:2
25,13:2
25,14:1
25,15:1
25,17:3
25,18:3
25,19:3
25,20:2
25,21:2
25,22:3
25,23:3
25,28:2
25,30:4
25,54:4
25,56:1
25,59:3
25,61:2
25,62:2
25,63:4
25,64:2
25,66:2
25,67:4
26,1:2
26,2:2
26,3:2
26,4:2
26,5:2
26,8:1
26,9:1
26,10:2
26,12:2
26,13:2
26,14:1
26,15:1
26,17:3
26,18:3
26,19:3
26,20:2
26,21:2
26,22:3
26,23:3
26,27:2
26,28:2
26,29:4
26,30:4
26,31:4
26,32:4
26,33:4
26,34:2
26,35:2
26,36:2
26,54:4
26,56:1
26,59:3
26,61:2
26,62:2
26,63:4
26,64:2
26,66:2
26,67:4
27,17:1
27,18:1
27,19:1
27,22:1
27,23:1
27,29:2
27,30:2
27,31:2
27,32:2
27,54:2
27,59:1
27,63:2
27,67:2
28,17:1
28,18:1
28,19:1
28,22:1
28,23:1
28,30:2
28,54:2
28,59:1
28,63:2
28,67:2
34,17:1
34,18:1
34,19:1
34,22:1
34,23:1
34,29:2
34,30:2
34,31:2
34,32:2
34,33:2
34,54:2
34,59:1
34,63:2
34,67:2
35,17:1
35,18:1
35,19:1
35,22:1
35,23:1
35,29:2
35,30:2
35,31:2
35,32:2
35,33:2
35,54:2
35,59:1
35,63:2
35,67:2
36,17:1
36,18:1
36,19:1
36,22:1
36,23:1
36,29:2
36,30:2
36,31:2
36,32:2
36,33:2
36,54:2
36,59:1
36,63:2
36,67:2
37,1:1
37,2:1
37,3:1
37,4:1
37,5:1
37,10:1
37,12:1
37,13:1
37,17:2
37,18:2
37,19:2
37,20:1
37,21:1
37,22:2
37,23:2
37,27:1
37,28:1
37,29:3
37,30:3
37,31:3
37,32:3
37,33:3
37,34:1
37,35:1
37,36:1
37,54:3
37,59:2
37,61:1
37,62:1
37,63:3
37,64:1
37,66:1
37,67:3
38,1:1
38,2:1
38,3:1
38,4:1
38,5:1
38,10:1
38,12:1
38,13:1
38,17:2
38,18:2
38,19:2
38,20:1
38,21:1
38,22:2
38,23:2
38,27:1
38,28:1
38,29:3
38,30:3
38,31:3
38,32:3
38,33:3
38,34:1
38,35:1
38,36:1
38,54:3
38,59:2
38,61:1
38,62:1
38,63:3
38,64:1
38,66:1
38,67:3
39,1:2
39,2:2
39,3:2
39,4:2
39,5:2
39,8:1
39,9:1
39,10:2
39,12:2
39,13:2
39,14:1
39,15:1
39,17:3
39,18:3
39,19:3
39,20:2
39,21:2
39,22:3
39,23:3
39,27:2
39,28:2
39,29:4
39,30:4
39,31:4
39,32:4
39,33:4
39,34:2
39,35:2
39,36:2
39,37:1
39,38:1
39,54:4
39,56:1
39,59:3
39,61:2
39,62:2
39,63:4
39,64:2
39,66:2
39,67:4
40,1:2
40,2:2
40,3:2
40,4:2
40,5:2
40,8:1
40,9:1
40,10:2
40,12:2
40,13:2
40,14:1
40,15:1
40,17:3
40,18:3
40,19:3
40,20:2
40,21:2
40,22:3
40,23:3
40,27:2
40,28:2
40,29:4
40,30:4
40,31:4
40,32:4
40,33:4
40,34:2
40,35:2
40,36:2
40,37:1
40,38:1
40,41:3
40,42:4
40,43:4
40,45:4
40,46:4
40,47:2
40,48:2
40,49:1
40,54:4
40,56:1
40,59:3
40,61:2
40,62:2
40,63:4
40,64:2
40,66:2
40,67:4
41,29:1
41,30:1
41,31:1
41,32:1
41,33:1
41,42:1
41,43:1
41,45:1
41,46:1
41,54:1
41,63:1
41,67:1
44,1:2
44,2:2
44,3:2
44,4:2
44,5:2
44,8:1
44,9:1
44,10:2
44,12:2
44,13:2
44,14:1
44,15:1
44,17:3
44,18:3
44,19:3
44,20:2
44,21:2
44,22:3
44,23:3
44,27:2
44,28:2
44,29:4
44,30:4
44,31:4
44,32:4
44,33:4
44,34:2
44,35:2
44,36:2
44,37:1
44,38:1
44,41:3
44,42:4
44,43:4
44,45:4
44,46:4
44,47:2
44,48:2
44,49:1
44,54:4
44,56:1
44,59:3
44,61:2
44,62:2
44,63:4
44,64:2
44,66:2
44,67:4
47,17:1
47,18:1
47,19:1
47,22:1
47,23:1
47,29:2
47,30:2
47,31:2
47,32:2
47,33:2
47,41:1
47,42:2
47,43:2
47,45:2
47,46:2
47,54:2
47,59:1
47,63:2
47,67:2
48,17:1
48,18:1
48,19:1
48,22:1
48,23:1
48,29:2
48,30:2
48,31:2
48,32:2
48,33:2
48,41:1
48,42:2
48,43:2
48,45:2
48,46:2
48,52:1
48,53:1
48,54:2
48,59:1
48,63:2
48,67:2
48,70:2
48,71:2
48,72:2
48,73:2
48,74:2
48,77:2
48,78:2
49,1:1
49,2:1
49,3:1
49,4:1
49,5:1
49,10:1
49,12:1
49,13:1
49,17:2
49,18:2
49,19:2
49,20:1
49,21:1
49,22:2
49,23:2
49,27:1
49,28:1
49,29:3
49,30:3
49,31:3
49,32:3
49,33:3
49,34:1
49,35:1
49,36:1
49,41:2
49,42:3
49,43:3
49,45:3
49,46:3
49,47:1
49,48:1
49,54:3
49,59:2
49,61:1
49,62:1
49,63:3
49,64:1
49,66:1
49,67:3
50,1:2
50,2:2
50,3:2
50,4:2
50,5:2
50,8:1
50,9:1
50,10:2
50,12:2
50,13:2
50,14:1
50,15:1
50,17:3
50,18:3
50,19:3
50,20:2
50,21:2
50,22:3
50,23:3
50,27:2
50,28:2
50,29:4
50,30:4
50,31:4
50,32:4
50,33:4
50,34:2
50,35:2
50,36:2
50,37:1
50,38:1
50,41:3
50,42:4
50,43:4
50,45:4
50,46:4
50,47:2
50,48:2
50,49:1
50,54:4
50,56:1
50,59:3
50,61:2
50,62:2
50,63:4
50,64:2
50,66:2
50,67:4
51,1:2
51,2:2
51,3:2
51,4:2
51,5:2
51,8:1
51,9:1
51,10:2
51,12:2
51,13:2
51,14:1
51,15:1
51,17:3
51,18:3
51,19:3
51,20:2
51,21:2
51,22:3
51,23:3
51,27:2
51,28:2
51,29:4
51,30:4
51,31:4
51,32:4
51,33:4
51,34:2
51,35:2
51,36:2
51,37:1
51,38:1
51,41:3
51,42:4
51,43:4
51,45:4
51,46:4
51,47:2
51,48:2
51,49:1
51,54:4
51,56:1
51,59:3
51,61:2
51,62:2
51,63:4
51,64:2
51,66:2
51,67:4
52,29:1
52,30:1
52,31:1
52,32:1
52,33:1
52,42:1
52,43:1
52,45:1
52,46:1
52,54:1
52,63:1
52,67:1
53,29:1
53,30:1
53,31:1
53,32:1
53,33:1
53,42:1
53,43:1
53,45:1
53,46:1
53,54:1
53,63:1
53,67:1
55,1:2
55,2:2
55,3:2
55,4:2
55,5:2
55,8:1
55,9:1
55,10:2
55,12:2
55,13:2
55,14:1
55,15:1
55,17:3
55,18:3
55,19:3
55,20:2
55,21:2
55,22:3
55,23:3
55,27:2
55,28:2
55,29:4
55,30:4
55,31:4
55,32:4
55,33:4
55,34:2
55,35:2
55,36:2
55,37:1
55,38:1
55,41:3
55,42:4
55,43:4
55,45:4
55,46:4
55,47:2
55,48:2
55,49:1
55,52:3
55,53:3
55,54:4
55,68:2
55,69:2
55,70:4
55,71:4
55,72:4
55,80:1
56,1:1
56,2:1
56,3:1
56,4:1
56,5:1
56,10:1
56,12:1
56,13:1
56,17:2
56,18:2
56,19:2
56,20:1
56,21:1
56,22:2
56,23:2
56,27:1
56,28:1
56,29:3
56,30:3
56,31:3
56,32:3
56,33:3
56,34:1
56,35:1
56,36:1
56,41:2
56,42:3
56,43:3
56,45:3
56,46:3
56,47:1
56,48:1
56,52:2
56,53:2
56,54:3
56,68:1
56,69:1
56,70:3
56,71:3
56,72:3
57,1:2
57,2:2
57,3:2
57,4:2
57,5:2
57,8:1
57,9:1
57,10:2
57,12:2
57,13:2
57,14:1
57,15:1
57,17:3
57,18:3
57,19:3
57,20:2
57,21:2
57,22:3
57,23:3
57,27:2
57,28:2
57,29:4
57,30:4
57,31:4
57,32:4
57,33:4
57,34:2
57,35:2
57,36:2
57,37:1
57,38:1
57,41:3
57,42:4
57,43:4
57,45:4
57,46:4
57,47:2
57,48:2
57,49:1
57,52:3
57,53:3
57,54:4
57,56:1
57,68:2
57,69:2
57,70:4
57,71:4
57,72:4
57,80:1
58,1:2
58,2:2
58,3:2
58,4:2
58,5:2
58,8:1
58,9:1
58,10:2
58,12:2
58,13:2
58,14:1
58,15:1
58,17:3
58,18:3
58,19:3
58,20:2
58,21:2
58,22:3
58,23:3
58,27:2
58,28:2
58,29:4
58,30:4
58,31:4
58,32:4
58,33:4
58,34:2
58,35:2
58,36:2
58,37:1
58,38:1
58,41:3
58,42:4
58,43:4
58,45:4
58,46:4
58,47:2
58,48:2
58,49:1
58,52:3
58,53:3
58,54:4
58,56:1
58,59:3
58,61:2
58,62:2
58,63:4
58,64:2
58,66:2
58,68:2
58,69:2
58,70:4
58,71:4
58,72:4
58,80:1
59,29:1
59,30:1
59,31:1
59,32:1
59,33:1
59,42:1
59,43:1
59,45:1
59,46:1
59,54:1
59,63:1
59,70:1
59,71:1
59,72:1
60,1:2
60,2:2
60,3:2
60,4:2
60,5:2
60,8:1
60,9:1
60,10:2
60,12:2
60,13:2
60,14:1
60,15:1
60,17:3
60,18:3
60,19:3
60,20:2
60,21:2
60,22:3
60,23:3
60,27:2
60,28:2
60,29:4
60,30:4
60,31:4
60,32:4
60,33:4
60,34:2
60,35:2
60,36:2
60,37:1
60,38:1
60,41:3
60,42:4
60,43:4
60,45:4
60,46:4
60,47:2
60,48:2
60,49:1
60,52:3
60,53:3
60,54:4
60,56:1
60,59:3
60,61:2
60,62:2
60,63:4
60,64:2
60,66:2
60,68:2
60,69:2
60,70:4
60,71:4
60,72:4
60,80:1
61,17:1
61,18:1
61,19:1
61,22:1
61,23:1
61,29:2
61,30:2
61,31:2
61,32:2
61,33:2
61,41:1
61,42:2
61,43:2
61,45:2
61,46:2
61,52:1
61,53:1
61,54:2
61,59:1
61,63:2
61,70:2
61,71:2
61,72:2
62,17:1
62,18:1
62,19:1
62,22:1
62,23:1
62,29:2
62,30:2
62,31:2
62,32:2
62,33:2
62,41:1
62,42:2
62,43:2
62,45:2
62,46:2
62,52:1
62,53:1
62,54:2
62,59:1
62,63:2
62,70:2
62,71:2
62,72:2
64,17:1
64,18:1
64,19:1
64,22:1
64,23:1
64,29:2
64,30:2
64,31:2
64,32:2
64,33:2
64,41:1
64,42:2
64,43:2
64,45:2
64,46:2
64,52:1
64,53:1
64,54:2
64,59:1
64,63:2
64,70:2
64,71:2
64,72:2
65,1:2
65,2:2
65,3:2
65,4:2
65,5:2
65,8:1
65,9:1
65,10:2
65,12:2
65,13:2
65,14:1
65,15:1
65,17:3
65,18:3
65,19:3
65,20:2
65,21:2
65,22:3
65,23:3
65,27:2
65,28:2
65,29:4
65,30:4
65,31:4
65,32:4
65,33:4
65,34:2
65,35:2
65,36:2
65,37:1
65,38:1
65,41:3
65,42:4
65,43:4
65,45:4
65,46:4
65,47:2
65,48:2
65,49:1
65,52:3
65,53:3
65,54:4
65,56:1
65,59:3
65,61:2
65,62:2
65,63:4
65,64:2
65,66:2
65,68:2
65,69:2
65,70:4
65,71:4
65,72:4
65,80:1
66,17:1
66,18:1
66,19:1
66,22:1
66,23:1
66,29:2
66,30:2
66,31:2
66,32:2
66,33:2
66,41:1
66,42:2
66,43:2
66,45:2
66,46:2
66,52:1
66,53:1
66,54:2
66,59:1
66,63:2
66,70:2
66,71:2
66,72:2
68,17:1
68,18:1
68,19:1
68,22:1
68,23:1
68,29:2
68,30:2
68,31:2
68,32:2
68,33:2
68,41:1
68,42:2
68,43:2
68,45:2
68,46:2
68,52:1
68,53:1
68,54:2
68,59:1
68,63:2
68,67:2
68,70:2
68,71:2
68,73:2
68,74:2
68,77:2
69,17:1
69,18:1
69,19:1
69,22:1
69,23:1
69,29:2
69,30:2
69,31:2
69,32:2
69,33:2
69,41:1
69,42:2
69,43:2
69,45:2
69,46:2
69,52:1
69,53:1
69,54:2
69,59:1
69,63:2
69,67:2
69,70:2
69,71:2
69,73:2
69,74:2
69,77:2
75,1:1
75,2:1
75,3:1
75,4:1
75,5:1
75,10:1
75,12:1
75,13:1
75,17:2
75,18:2
75,19:2
75,20:1
75,21:1
75,22:2
75,23:2
75,27:1
75,28:1
75,29:3
75,30:3
75,31:3
75,32:3
75,33:3
75,34:1
75,35:1
75,36:1
75,41:2
75,42:3
75,43:3
75,45:3
75,46:3
75,47:1
75,48:1
75,52:2
75,53:2
75,54:3
75,59:2
75,61:1
75,62:1
75,63:3
75,64:1
75,66:1
75,67:3
75,68:1
75,69:1
75,70:3
75,71:3
75,72:3
75,73:3
75,74:3
76,1:2
76,2:2
76,3:2
76,4:2
76,5:2
76,8:1
76,9:1
76,10:2
76,12:2
76,13:2
76,14:1
76,15:1
76,17:3
76,18:3
76,19:3
76,20:2
76,21:2
76,22:3
76,23:3
76,27:2
76,28:2
76,29:4
76,30:4
76,31:4
76,32:4
76,33:4
76,34:2
76,35:2
76,36:2
76,37:1
76,38:1
76,41:3
76,42:4
76,43:4
76,45:4
76,46:4
76,47:2
76,48:2
76,49:1
76,52:3
76,53:3
76,54:4
76,56:1
76,59:3
76,61:2
76,62:2
76,63:4
76,64:2
76,66:2
76,67:4
76,68:2
76,69:2
76,70:4
76,71:4
76,72:4
76,73:4
76,74:4
76,75:1
76,77:4
76,78:4
76,79:2
76,80:1
79,17:1
79,18:1
79,19:1
79,22:1
79,23:1
79,29:2
79,30:2
79,31:2
79,32:2
79,33:2
79,41:1
79,42:2
79,43:2
79,45:2
79,46:2
79,52:1
79,53:1
79,54:2
79,59:1
79,63:2
79,67:2
79,70:2
79,71:2
79,72:2
79,73:2
79,74:2
79,77:2
79,78:2
80,1:1
80,2:1
80,3:1
80,4:1
80,5:1
80,10:1
80,12:1
80,13:1
80,17:2
80,18:2
80,19:2
80,20:1
80,21:1
80,22:2
80,23:2
80,27:1
80,28:1
80,29:3
80,30:3
80,31:3
80,32:3
80,33:3
80,34:1
80,35:1
80,36:1
80,41:2
80,42:3
80,43:3
80,45:3
80,46:3
80,47:1
80,48:1
80,52:2
80,53:2
80,54:3
80,59:2
80,61:1
80,62:1
80,63:3
80,64:1
80,66:1
80,67:3
80,68:1
80,69:1
80,70:3
80,71:3
80,72:3
80,73:3
80,74:3
80,77:3
80,78:3
80,79:1
81,1:2
81,2:2
81,3:2
81,4:2
81,5:2
81,8:1
81,9:1
81,10:2
81,12:2
81,13:2
81,14:1
81,15:1
81,17:3
81,18:3
81,19:3
81,20:2
81,21:2
81,22:3
81,23:3
81,27:2
81,28:2
81,29:4
81,30:4
81,31:4
81,32:4
81,33:4
81,34:2
81,35:2
81,36:2
81,37:1
81,38:1
81,41:3
81,42:4
81,43:4
81,45:4
81,46:4
81,47:2
81,48:2
81,49:1
81,52:3
81,53:3
81,54:4
81,56:1
81,59:3
81,61:2
81,62:2
81,63:4
81,64:2
81,66:2
81,67:4
81,68:2
81,69:2
81,70:4
81,71:4
81,72:4
81,73:4
81,74:4
81,75:1
81,77:4
81,78:4
81,79:2
81,80:1
82,1:2
82,2:2
82,3:2
82,4:2
82,5:2
82,8:1
82,9:1
82,10:2
82,12:2
82,13:2
82,14:1
82,15:1
82,17:3
82,18:3
82,19:3
82,20:2
82,21:2
82,22:3
82,23:3
82,27:2
82,28:2
82,29:4
82,30:4
82,31:4
82,32:4
82,33:4
82,34:2
82,35:2
82,36:2
82,37:1
82,38:1
82,41:3
82,42:4
82,43:4
82,45:4
82,46:4
82,47:2
82,48:2
82,49:1
82,52:3
82,53:3
82,54:4
82,56:1
82,59:3
82,61:2
82,62:2
82,63:4
82,64:2
82,66:2
82,67:4
82,68:2
82,69:2
82,70:4
82,71:4
82,72:4
82,73:4
82,74:4
82,75:1
82,77:4
82,78:4
82,79:2
82,80:1
83,1:2
83,2:2
83,3:2
83,4:2
83,5:2
83,8:1
83,9:1
83,10:2
83,12:2
83,13:2
83,14:1
83,15:1
83,17:3
83,18:3
83,19:3
83,20:2
83,21:2
83,22:3
83,23:3
83,27:2
83,28:2
83,29:4
83,30:4
83,31:4
83,32:4
83,33:4
83,34:2
83,35:2
83,36:2
83,37:1
83,38:1
83,41:3
83,42:4
83,43:4
83,45:4
83,46:4
83,47:2
83,48:2
83,49:1
83,52:3
83,53:3
83,54:4
83,56:1
83,59:3
83,61:2
83,62:2
83,63:4
83,64:2
83,66:2
83,67:4
83,68:2
83,69:2
83,70:4
83,71:4
83,72:4
83,73:4
83,74:4
83,75:1
83,77:4
83,78:4
83,79:2
83,80:1
84,1:2
84,2:2
84,3:2
84,4:2
84,5:2
84,8:1
84,9:1
84,10:2
84,12:2
84,13:2
84,14:1
84,15:1
84,17:3
84,18:3
84,19:3
84,20:2
84,21:2
84,22:3
84,23:3
84,27:2
84,28:2
84,29:4
84,30:4
84,31:4
84,32:4
84,33:4
84,34:2
84,35:2
84,36:2
84,37:1
84,38:1
84,41:3
84,42:4
84,43:4
84,45:4
84,46:4
84,47:2
84,48:2
84,49:1
84,52:3
84,53:3
84,54:4
84,56:1
84,59:3
84,61:2
84,62:2
84,63:4
84,64:2
84,66:2
84,67:4
84,68:2
84,69:2
84,70:4
84,71:4
84,72:4
84,73:4
84,74:4
84,75:1
84,77:4
84,78:4
84,79:2
84,80:1
85,1:2
85,2:2
85,3:2
85,4:2
85,5:2
85,8:1
85,9:1
85,10:2
85,12:2
85,13:2
85,14:1
85,15:1
85,17:3
85,18:3
85,19:3
85,20:2
85,21:2
85,22:3
85,23:3
85,27:2
85,28:2
85,29:4
85,30:4
85,31:4
85,32:4
85,33:4
85,34:2
85,35:2
85,36:2
85,37:1
85,38:1
85,41:3
85,42:4
85,43:4
85,45:4
85,46:4
85,47:2
85,48:2
85,49:1
85,52:3
85,53:3
85,54:4
85,56:1
85,59:3
85,61:2
85,62:2
85,63:4
85,64:2
85,66:2
85,67:4
85,68:2
85,69:2
85,70:4
85,71:4
85,72:4
85,73:4
85,74:4
85,75:1
85,77:4
85,78:4
85,79:2
85,80:1
86,1:2
86,2:2
86,3:2
86,4:2
86,5:2
86,8:1
86,9:1
86,10:2
86,12:2
86,13:2
86,14:1
86,15:1
86,17:3
86,18:3
86,19:3
86,20:2
86,21:2
86,22:3
86,23:3
86,27:2
86,28:2
86,29:4
86,30:4
86,31:4
86,32:4
86,33:4
86,34:2
86,35:2
86,36:2
86,37:1
86,38:1
86,41:3
86,42:4
86,43:4
86,45:4
86,46:4
86,47:2
86,48:2
86,49:1
86,52:3
86,53:3
86,54:4
86,56:1
86,59:3
86,61:2
86,62:2
86,63:4
86,64:2
86,66:2
86,67:4
86,68:2
86,69:2
86,70:4
86,71:4
86,72:4
86,73:4
86,74:4
86,75:1
86,77:4
86,78:4
86,79:2
86,80:1
87,17:1
87,18:1
87,19:1
87,22:1
87,23:1
87,29:2
87,30:2
87,31:2
87,32:2
87,33:2
87,41:1
87,42:2
87,43:2
87,45:2
87,46:2
87,52:1
87,53:1
87,54:2
87,59:1
87,63:2
87,67:2
87,70:2
87,71:2
87,72:2
87,73:2
87,74:2
87,77:2
87,78:2
88,17:1
88,18:1
88,19:1
88,22:1
88,23:1
88,29:2
88,30:2
88,31:2
88,32:2
88,33:2
88,41:1
88,42:2
88,43:2
88,45:2
88,46:2
88,52:1
88,53:1
88,54:2
88,59:1
88,63:2
88,67:2
88,70:2
88,71:2
88,72:2
88,73:2
88,74:2
88,77:2
88,78:2
89,17:1
89,18:1
89,19:1
89,22:1
89,23:1
89,29:2
89,30:2
89,31:2
89,32:2
89,33:2
89,41:1
89,42:2
89,43:2
89,45:2
89,46:2
89,52:1
89,53:1
89,54:2
89,59:1
89,63:2
89,67:2
89,70:2
89,71:2
89,72:2
89,73:2
89,74:2
89,77:2
89,78:2

<end>

<optimal SALBP-1 value>
34


<rand seed>
467321153

